Cost: 1294
0-31-47-44-28-29-26-25-24-18-19-20-40-41-21-22-50-23-54-27-49-45-0
0-34-1-48-3-5-6-4-7-8-36-9-37-11-38-10-51-14-15-17-55-33-0
Cost: 1294
0-31-47-44-28-29-26-25-24-18-19-20-40-41-22-21-50-23-54-27-49-45-0
0-34-1-48-3-5-6-4-7-8-36-9-37-11-38-10-51-14-15-17-55-33-0
Cost: 1294
0-31-47-44-28-29-26-25-24-18-19-20-40-41-21-22-50-23-54-27-49-45-0
0-34-1-48-3-5-6-4-7-8-36-9-37-11-38-10-51-14-15-17-55-33-0
Cost: 1294
0-31-47-44-28-29-26-25-24-18-19-20-40-22-41-21-50-23-54-27-49-45-0
0-34-1-48-3-5-6-4-7-8-36-9-37-11-38-10-14-16-17-52-55-33-0
Cost: 1294
0-31-47-44-28-29-26-25-24-18-19-20-40-41-22-21-50-23-54-27-49-45-0
0-34-1-48-3-5-6-4-7-8-36-9-37-11-38-10-51-14-15-17-55-33-0
Cost: 1294
0-31-47-44-28-29-26-25-24-18-19-20-40-41-22-21-50-23-54-27-49-45-0
0-34-1-48-3-5-6-4-7-8-36-9-37-11-38-10-51-14-16-17-55-33-0
Cost: 1294
0-34-1-48-3-5-6-4-7-8-36-9-37-11-38-10-14-15-17-52-55-33-0
0-31-47-44-28-29-26-25-24-18-19-20-40-41-21-22-50-23-54-27-49-45-0
Cost: 1294
0-34-1-48-3-4-5-6-7-8-36-9-37-11-38-10-51-14-16-17-55-33-0
0-31-47-44-28-29-26-25-24-18-19-20-40-41-21-22-50-23-54-27-49-45-0
Cost: 1294
0-34-1-48-3-4-5-6-7-8-36-9-37-11-38-10-51-14-16-17-55-33-0
0-31-47-44-28-29-26-25-24-18-19-20-40-41-21-22-50-23-54-27-49-45-0
Cost: 1294
0-34-1-48-3-4-5-6-7-8-36-9-37-11-38-10-51-14-16-17-55-33-0
0-31-47-44-28-29-26-25-24-18-19-20-40-41-21-22-50-23-54-27-49-45-0
Cost: 1294
0-31-47-44-28-29-26-25-24-18-19-20-40-41-21-22-50-23-54-27-49-45-0
0-34-1-48-3-5-6-4-7-8-36-9-37-11-38-10-14-16-17-52-55-33-0
Cost: 1294
0-34-1-48-3-5-6-4-7-8-36-9-37-11-38-10-14-16-17-52-55-33-0
0-31-47-44-28-29-26-25-24-18-19-20-40-41-21-22-50-23-54-27-49-45-0
Cost: 1294
0-34-1-48-3-5-6-4-7-8-36-9-37-11-38-10-14-16-17-52-55-33-0
0-31-47-44-28-29-26-25-24-18-19-20-40-41-21-22-50-23-54-27-49-45-0
Cost: 1294
0-34-1-48-3-5-6-4-7-8-36-9-37-11-38-10-14-16-17-52-55-33-0
0-31-47-44-28-29-26-25-24-18-19-20-40-41-21-22-50-23-54-27-49-45-0
Cost: 1294
0-34-1-48-3-5-6-4-7-8-36-9-37-11-38-10-14-16-17-52-55-33-0
0-31-47-44-28-29-26-25-24-18-19-20-40-41-21-22-50-23-54-27-49-45-0
Cost: 1294
0-34-1-48-3-5-6-4-7-8-36-9-37-11-38-10-14-16-17-52-55-33-0
0-31-47-44-28-29-26-25-24-18-19-20-40-41-21-22-50-23-54-27-49-45-0
Cost: 1294
0-34-1-48-3-5-6-4-7-8-36-9-37-11-38-10-14-16-17-52-55-33-0
0-31-47-44-28-29-26-25-24-18-19-20-40-41-21-22-50-23-54-27-49-45-0
Cost: 1294
0-34-1-48-3-4-5-6-7-8-36-9-37-11-38-10-14-16-17-52-55-33-0
0-31-47-44-28-29-26-25-24-18-19-20-40-41-21-22-50-23-54-27-49-45-0
Cost: 1294
0-34-1-48-3-5-6-4-7-8-36-9-37-11-38-10-14-16-17-52-55-33-0
0-31-47-44-28-29-26-25-24-18-19-20-40-41-21-22-50-23-54-27-49-45-0
Cost: 1294
0-34-1-48-3-5-6-4-7-8-36-9-37-11-38-10-14-16-17-52-55-33-0
0-31-47-44-28-29-26-25-24-18-19-20-40-41-21-22-50-23-54-27-49-45-0
Cost: 1294
0-34-1-48-3-5-6-4-7-8-36-9-37-11-38-10-14-16-17-52-55-33-0
0-31-47-44-28-29-26-25-24-18-19-20-40-41-21-22-50-23-54-27-49-45-0
Cost: 1294
0-34-1-48-3-5-6-4-7-8-36-9-37-11-38-10-14-16-17-52-55-33-0
0-31-47-44-28-29-26-25-24-18-19-20-40-41-21-22-50-23-54-27-49-45-0
Cost: 1294
0-34-1-48-3-5-6-4-7-8-36-9-37-11-38-10-14-16-17-52-55-33-0
0-31-47-44-28-29-26-25-24-18-19-20-40-41-21-22-50-23-54-27-49-45-0
Cost: 1294
0-34-1-48-3-5-6-4-7-8-36-9-37-11-38-10-14-16-17-52-55-33-0
0-31-47-44-28-29-26-25-24-18-19-20-40-41-21-22-50-23-54-27-49-45-0
Cost: 1294
0-34-1-48-3-5-6-4-7-8-36-9-37-11-38-10-14-16-17-52-55-33-0
0-31-47-44-28-29-26-25-24-18-19-20-40-41-21-22-50-23-54-27-49-45-0
Cost: 1294
0-34-1-48-3-5-6-4-7-8-36-9-37-11-38-10-14-16-17-52-55-33-0
0-31-47-44-28-29-26-25-24-18-19-20-40-41-21-22-50-23-54-27-49-45-0
Cost: 1294
0-34-1-48-3-5-6-4-7-8-36-9-37-11-38-10-14-16-17-52-55-33-0
0-31-47-44-28-29-26-25-24-18-19-20-40-41-21-22-50-23-54-27-49-45-0
Cost: 1294
0-34-1-48-3-5-6-4-7-8-36-9-37-11-38-10-14-16-17-52-55-33-0
0-31-47-44-28-29-26-25-24-18-19-20-40-41-21-22-50-23-54-27-49-45-0
Cost: 1294
0-34-1-48-3-5-6-4-7-8-36-9-37-11-38-10-14-16-17-52-55-33-0
0-31-47-44-28-29-26-25-24-18-19-20-40-41-21-22-50-23-54-27-49-45-0
Cost: 1294
0-34-1-48-3-5-6-4-7-8-36-9-37-11-38-10-14-16-17-52-55-33-0
0-31-47-44-28-29-26-25-24-18-19-20-40-41-21-22-50-23-54-27-49-45-0
Cost: 1294
0-31-47-44-28-29-26-25-24-18-19-20-40-41-22-21-50-23-54-27-49-45-0
0-34-1-3-48-5-6-4-7-8-36-9-37-11-38-10-51-14-15-17-55-33-0
Cost: 1294
0-34-1-48-3-4-5-6-7-8-36-9-37-11-38-10-51-14-15-17-55-33-0
0-31-47-44-28-29-26-25-24-18-19-20-40-21-22-41-50-23-54-27-49-45-0
Cost: 1294
0-34-1-48-3-4-5-6-7-8-36-9-37-11-38-10-51-14-15-17-55-33-0
0-31-47-44-28-29-26-25-24-18-19-20-40-41-22-21-50-23-54-27-49-45-0
Cost: 1294
0-34-1-3-48-5-6-4-7-8-36-9-37-11-38-10-51-14-15-17-55-33-0
0-31-47-44-28-29-26-25-24-18-19-20-40-21-22-41-50-23-54-27-49-45-0
Cost: 1294
0-31-47-44-28-29-26-25-24-18-19-20-40-21-22-41-50-23-54-27-49-45-0
0-34-1-48-3-4-5-6-7-8-36-9-37-11-38-10-14-16-17-52-55-33-0
